c A temporal KB for measuring ID
p wcnf 76 60 6
5 1 17 0
5 -1 3 0
5 -1 -4 0
5 -17 3 0
5 -17 4 0
5 5 18 0
5 -5 7 0
5 -5 -8 0
5 -18 7 0
5 -18 8 0
5 9 19 0
5 -9 11 0
5 -9 -12 0
5 -19 11 0
5 -19 12 0
5 13 20 0
5 -13 15 0
5 -13 -16 0
5 -20 15 0
5 -20 16 0
5 2 10 21 0
5 -2 4 0
5 -2 -3 0
5 -21 4 0
5 -21 3 0
5 -10 12 0
5 -10 -11 0
5 -21 12 0
5 -21 11 0
5 2 14 22 0
5 -2 4 0
5 -2 -3 0
5 -22 4 0
5 -22 3 0
5 -14 16 0
5 -14 -15 0
5 -22 16 0
5 -22 15 0
5 6 10 23 0
5 -6 8 0
5 -6 -7 0
5 -23 8 0
5 -23 7 0
5 -10 12 0
5 -10 -11 0
5 -23 12 0
5 -23 11 0
5 6 14 24 0
5 -6 8 0
5 -6 -7 0
5 -24 8 0
5 -24 7 0
5 -14 16 0
5 -14 -15 0
5 -24 16 0
5 -24 15 0
1 -3 -4 0
1 -7 -8 0
1 -11 -12 0
1 -15 -16 0
